;MADE BY EPANET-JS [c91631d1]
;PROJECTION xy-grid
[JUNCTIONS]
;Id	Elevation
n1	73.2105
n2	73.8737
n3	73.1782
n4	68.2608
n5	65.5695
n6	70.9095
n7	75.9175
n8	64.4833
n9	69.2626
n10	74.3469
n11	63.0588
n12	68.2274
n13	61.9901
n14	68.5805
n15	70.9492
n16	68.7986
n17	60.5935
n18	67.142
n19	73.3626
n20	65.9549
n21	59.6849
n22	76.1173
n23	64.2052
n24	67.8217
n25	58.9717
n26	61.6305
n27	65.7763
n28	61.4047
n29	71.5429
n30	75.3299
n31	65.0059
n32	71.159
n33	60.5902
n34	65.8482
n35	59.6258
n36	70.1959
n37	63.9172
n38	58.5794
n39	62.9791
n40	60.2093
n41	69.2961
n42	61.0635
n43	61.8585
n44	66.1177
n45	62.5989
n343	66.12
n344	74.28
n345	71.23
n346	67.93
n347	73.6617
n348	74.1128
n349	74.564
n350	75.0152
n351	75.4663
n352	74.1103
n353	73.5455
n354	73.9127
n355	66.4555
n356	67.3414
n357	69.745
n358	75.9841
n359	76.0507
n360	64.9738
n361	65.4644
n362	74.0188
n363	73.6907
n364	63.4409
n365	63.8231
n366	61.8702
n367	61.7504
n368	71.0896
n369	60.5924
n370	60.5913
n371	73.8213
n372	65.8656
n373	59.6553
n374	74.9737
n375	73.8301
n376	72.6865
n377	62.9179
n378	68.9578
n379	70.0939
n380	61.2341
n381	74.0464
n382	72.7629
n383	71.4794
n384	69.5445
n385	66.8891
n386	59.3943
n387	64.9448
n388	63.7718
n389	67.0238

[RESERVOIRS]
;Id	Head	Pattern
1	102

[TANKS]
;Id	Elevation	InitLevel	MinLevel	MaxLevel	Diameter	MinVol

[PIPES]
;Id	Start	End	Length	Diameter	Roughness	MinorLoss	Status
p5	n3	n2	23.7879	100	140
p6	n12	n14	31.2114	100	140
p7	n6	n9	43.3995	100	140
p8	n22	n30	53.0045	100	140
p11	n7	n10	68.3713	100	140
p12	n9	n4	70.3494	100	140
p13	n31	n27	49.4422	100	140
p14	n14	n16	34.2032	100	140
p15	n15	n16	72.2253	100	140
p16	n16	n18	50.1237	100	140
p17	n18	n20	54.2489	100	140
p18	n18	n24	65.191	100	140
p19	n21	n25	56.4633	100	140
p20	n26	n28	29.6436	100	140
p21	n27	n34	47.7731	100	140
p22	n28	n33	43.8692	100	140
p23	n29	n32	18.6286	100	140
p24	n32	n36	50.1077	100	140
p25	n33	n35	72.5123	100	140
p26	n34	n37	60.0953	100	140
p27	n35	n38	38.7224	100	140
p28	n36	n41	42.5986	100	140
p29	n37	n45	63.0851	100	140
p30	n37	n39	49.6992	100	140
p31	n40	n42	48.2914	100	140
p32	n42	n43	41.6678	100	140
p33	n43	n45	40.4763	100	140
p240	n343	n44	23.9926	200	140
p241	n5	n8	52.157	100	140
p242	n8	n11	62.8657	100	140
p243	n11	n13	58.9374	100	140
p244	n13	n17	72.0893	100	140
p245	n17	n21	73.4228	100	140
p246	n10	n344	66.1972	100	140
p247	n344	n15	62.8912	100	140
p248	n24	n346	56.5717	100	140
p249	n345	n29	60.1765	100	140
p250	n19	n345	63.0229	100	140
p251	n23	n31	48.454	100	140
p252	n20	n23	61.1031	100	140
p253	n1	n347	68.097	100	140
p254	n347	n348	45.4723	100	140
p255	n348	n349	50.5431	100	140
p256	n349	n350	50.0042	100	140
p257	n350	n351	45.6975	100	140
p258	n351	n7	54.9718	100	140
p259	n2	n352	45.9778	100	140
p260	n352	n10	45.9758	100	140
p261	n3	n353	47.9576	100	140
p262	n353	n354	46.1673	100	140
p263	n354	n344	46.6814	100	140
p264	n5	n355	58.9057	100	140
p265	n355	n356	47.8409	100	140
p266	n356	n12	42.6386	100	140
p267	n6	n357	44.7387	100	140
p268	n357	n14	74.2158	100	140
p269	n7	n358	54.8852	100	140
p270	n358	n359	54.8734	100	140
p271	n359	n22	54.8852	100	140
p272	n8	n360	54.4422	100	140
p273	n360	n361	54.4379	100	140
p274	n361	n20	54.4422	100	140
p275	n10	n362	55.052	100	140
p276	n362	n363	42.0531	100	140
p277	n363	n19	52.7753	100	140
p278	n11	n364	49.2109	100	140
p279	n364	n365	49.202	100	140
p280	n365	n23	49.2109	100	140
p281	n13	n366	46.9238	100	140
p282	n366	n367	46.9108	100	140
p283	n367	n26	46.9238	100	140
p284	n15	n368	40.9555	100	140
p285	n368	n345	40.9555	100	140
p286	n17	n369	41.7936	100	140
p287	n369	n370	41.7842	100	140
p288	n370	n33	41.7936	100	140
p289	n19	n371	44.3754	100	140
p290	n371	n344	44.388	100	140
p291	n20	n372	52.1064	100	140
p292	n372	n27	31.2938	100	140
p293	n21	n373	56.6909	100	140
p294	n373	n35	56.6782	100	140
p295	n22	n374	45.2612	100	140
p296	n374	n375	45.2612	100	140
p297	n375	n376	45.2708	100	140
p298	n376	n29	45.2612	100	140
p299	n23	n377	37.911	100	140
p300	n377	n26	37.92	100	140
p301	n24	n378	42.1213	100	140
p302	n378	n379	42.1282	100	140
p303	n379	n345	42.1213	100	140
p304	n28	n380	51.8914	100	140
p305	n380	n42	51.8798	100	140
p306	n30	n381	49.2268	100	140
p307	n381	n382	49.2364	100	140
p308	n382	n383	49.2241	100	140
p309	n383	n36	49.2364	100	140
p310	n32	n384	54.2583	100	140
p311	n384	n346	54.2656	100	140
p312	n34	n385	37.8059	100	140
p313	n385	n346	37.8079	100	140
p314	n38	n386	58.7666	100	140
p315	n386	n40	58.7569	100	140
p316	n44	n387	48.3058	200	140
p317	n387	n388	48.3053	200	140
p318	n388	n45	48.3058	200	140
p319	n44	n389	41.9903	100	140
p320	n389	n346	41.9919	100	140
1	1	n343	55.36	200	140

[PUMPS]
;Id	Start	End	Properties

[VALVES]
;Id	Start	End	Diameter	Setting	MinorLoss

[DEMANDS]
;Id	Demand	Pattern	Category
n1	0.66024
n2	0.16992	P-Residential
n3	0.1908	P-Residential
n4	1.5012
n5	0.2322	P-Residential
n6	0.2466	P-Residential
n7	0.37836	P-Residential
n8	0.30132	P-Residential
n9	0.40464	P-Residential
n10	0.08424	P-Residential
n11	0.54432	P-Residential
n12	0.05832	P-Residential
n13	0.2358	P-Residential
n14	0.01944	P-Residential
n15	0.19152	P-Residential
n16	0.09648	P-Residential
n17	0.44892	P-Residential
n18	0.07236	P-Residential
n19	0.12924	P-Residential
n20	0.14436	P-Residential
n21	0.06084	P-Residential
n22	0.15084	P-Residential
n23	0.02869	P-Residential
n23	0.10523	P-Commercial
n24	0.04392	P-Residential
n25	1.73736
n26	0.00468	P-Residential
n26	0.02376	P-Commercial
n27	0.13068	P-Residential
n28	0.39276	P-Commercial
n29	0.04896	P-Residential
n30	0.30564	P-Residential
n31	0.11628	P-Residential
n32	0.07992	P-Residential
n33	0.00288	P-Residential
n33	0.11952	P-Commercial
n34	0.11232	P-Residential
n35	0.05328	P-Commercial
n36	0.2664	P-Residential
n37	0.0846	P-Residential
n38	0.18889	P-Residential
n38	0.32555	P-Commercial
n39	0.01656	P-Residential
n40	0.342	P-Residential
n41	0.17028	P-Residential
n42	0.243	P-Residential
n43	0.11808	P-Residential
n44	0.03888	P-Residential
n45	0.27288	P-Residential
n343	0.1283	P-Residential
n343	0.01174	P-Commercial
n344	0.2664	P-Residential
n345	0.05256	P-Residential
n346	0.17856	P-Residential
n347	0.0396
n348	0.02988	P-Residential
n349	0.05976	P-Residential
n350	0.20844	P-Residential
n351	0.3924	P-Residential
n352	0.1332	P-Residential
n353	0.29268	P-Residential
n354	0.12312	P-Residential
n355	0.43812	P-Residential
n356	0.1242	P-Residential
n357	0.10224	P-Residential
n358	0.55008	P-Residential
n359	0.38808	P-Residential
n360	0.2682	P-Residential
n361	0.1134	P-Residential
n362	0.00576	P-Residential
n363	0.15444	P-Residential
n364	0.09936	P-Residential
n365	0.11052	P-Residential
n366	0.1638	P-Residential
n367	0.04489	P-Residential
n367	0.08543	P-Commercial
n368	0.11556	P-Residential
n369	0.17784	P-Residential
n370	0.04027	P-Residential
n370	0.22433	P-Commercial
n371	0.07056	P-Residential
n372	0.036	P-Residential
n373	0.0306	P-Residential
n374	0.11268	P-Residential
n375	0.05868	P-Residential
n376	0.12816	P-Residential
n377	0.30888	P-Commercial
n378	0.01368	P-Residential
n379	0.0972	P-Residential
n380	0.16812	P-Residential
n381	0.23004	P-Residential
n382	0.1476	P-Residential
n383	0.0846	P-Residential
n384	0.21024	P-Residential
n385	0.04896	P-Residential
n386	0.24876	P-Residential
n387	0.16092	P-Residential
n388	0.29851	P-Residential
n388	0.13997	P-Commercial
n389	0.16812	P-Residential

[STATUS]
;Id	Status

[CURVES]
;Id	X	Y
1	0	126.67
1	27.3856	88.669
1	49.999	0

[PATTERNS]
;Id	Multiplier
constant	1
;DEMAND:
P-Residential	0.7729	0.748	0.723	0.6986	0.6751	0.6525	0.6305	0.6089
P-Residential	0.5874	0.5659	0.5446	0.5236	0.5031	0.4833	0.4643	0.4459
P-Residential	0.4279	0.4103	0.3929	0.3757	0.359	0.343	0.3279	0.3139
P-Residential	0.3013	0.2899	0.2795	0.27	0.261	0.2523	0.2439	0.2355
P-Residential	0.2273	0.2192	0.2114	0.2042	0.1976	0.1918	0.1868	0.1827
P-Residential	0.1794	0.1765	0.1738	0.171	0.1678	0.1642	0.1602	0.1561
P-Residential	0.1522	0.149	0.1469	0.1459	0.1461	0.1473	0.1491	0.1514
P-Residential	0.154	0.157	0.1607	0.1655	0.1719	0.1804	0.1914	0.2053
P-Residential	0.2226	0.2439	0.27	0.3022	0.3415	0.3889	0.4448	0.5088
P-Residential	0.5794	0.6544	0.7306	0.8048	0.8742	0.9366	0.9914	1.0389
P-Residential	1.0808	1.1193	1.1567	1.1948	1.2343	1.2751	1.3158	1.3545
P-Residential	1.3891	1.4179	1.4399	1.4551	1.4642	1.4685	1.4697	1.4692
P-Residential	1.4683	1.4675	1.4673	1.4676	1.4681	1.4687	1.4693	1.4698
P-Residential	1.4702	1.4707	1.4712	1.4716	1.4721	1.4725	1.4729	1.4736
P-Residential	1.4744	1.4757	1.4772	1.4788	1.4801	1.4806	1.48	1.4778
P-Residential	1.4743	1.4696	1.4643	1.4589	1.4541	1.4502	1.4475	1.4456
P-Residential	1.4444	1.4432	1.4416	1.4396	1.4369	1.4339	1.4307	1.4278
P-Residential	1.4254	1.4235	1.422	1.4206	1.4191	1.417	1.4143	1.411
P-Residential	1.4072	1.4033	1.3994	1.3959	1.393	1.3908	1.3891	1.3879
P-Residential	1.3869	1.386	1.3849	1.3835	1.3816	1.3793	1.3764	1.373
P-Residential	1.3692	1.365	1.3606	1.3558	1.3508	1.3455	1.3398	1.3337
P-Residential	1.3272	1.3201	1.3126	1.3047	1.2963	1.2874	1.2779	1.2676
P-Residential	1.2563	1.2438	1.2302	1.2157	1.2005	1.1852	1.1706	1.1573
P-Residential	1.1457	1.1363	1.129	1.1238	1.1203	1.1182	1.1171	1.1167
P-Residential	1.1169	1.1179	1.1196	1.122	1.1253	1.1294	1.134	1.1389
P-Residential	1.1439	1.149	1.154	1.1589	1.1638	1.1688	1.1738	1.1788
P-Residential	1.1837	1.1885	1.1931	1.1975	1.2016	1.2056	1.2096	1.2137
P-Residential	1.2179	1.2223	1.2269	1.2318	1.237	1.2426	1.2487	1.2551
P-Residential	1.2617	1.268	1.2738	1.2787	1.2822	1.2845	1.2858	1.2865
P-Residential	1.2874	1.2891	1.292	1.2962	1.3012	1.3063	1.3105	1.3129
P-Residential	1.3132	1.3114	1.3082	1.3047	1.3025	1.3028	1.3063	1.3132
P-Residential	1.3226	1.3332	1.3436	1.352	1.3575	1.3595	1.3581	1.3538
P-Residential	1.3474	1.3394	1.3299	1.3187	1.3051	1.2885	1.2684	1.2452
P-Residential	1.2196	1.193	1.1672	1.1437	1.1239	1.1081	1.0957	1.0857
P-Residential	1.0763	1.0658	1.053	1.0372	1.0184	0.9974	0.9754	0.9533
P-Residential	0.932	0.912	0.8929	0.8744	0.8556	0.8361	0.8155	0.7939
P-Residential	0.7715	0.7488	0.7263	0.7043	0.6828	0.6617	0.6406	0.6192
P-Residential	0.5973	0.575	0.5524	0.53	0.5081	0.487	0.467	0.448
P-Residential	0.4299	0.4127	0.3961	0.3801	0.3648	0.3503	0.3367	0.3241
P-Residential	0.3125	0.3014	0.2907	0.2801	0.2692	0.258	0.2467	0.2354
P-Residential	0.2247	0.2148	0.2061	0.1986	0.1924	0.1871	0.1825	0.1781
P-Residential	0.1737	0.169	0.1639	0.1585	0.153	0.1477	0.143	0.1391
P-Residential	0.1362	0.1345	0.1339	0.1342	0.1351	0.1364	0.1378	0.1395
P-Residential	0.1415	0.1443	0.1483	0.1541	0.1623	0.1731	0.1867	0.2033
P-Residential	0.2229	0.2459	0.2729	0.3048	0.3427	0.3878	0.4409	0.5022
P-Residential	0.5709	0.6453	0.723	0.8007	0.8754	0.9445	1.0063	1.0606
P-Residential	1.1082	1.1508	1.1908	1.2301	1.2701	1.3109	1.3518	1.391
P-Residential	1.4263	1.4556	1.4774	1.4913	1.4978	1.4984	1.4953	1.4906
P-Residential	1.4861	1.4832	1.4823	1.4834	1.4859	1.4891	1.4923	1.495
P-Residential	1.4971	1.4988	1.5001	1.5015	1.5029	1.5044	1.5057	1.5067
P-Residential	1.5071	1.507	1.5062	1.505	1.5035	1.502	1.5006	1.4991
P-Residential	1.4976	1.4958	1.4937	1.4911	1.488	1.4843	1.4803	1.4761
P-Residential	1.4719	1.468	1.4643	1.4612	1.4584	1.4561	1.454	1.452
P-Residential	1.4499	1.4474	1.4443	1.4406	1.4362	1.4315	1.4265	1.4217
P-Residential	1.4175	1.414	1.4115	1.4101	1.4097	1.4101	1.411	1.4123
P-Residential	1.4136	1.4148	1.4157	1.416	1.4156	1.4144	1.4121	1.4087
P-Residential	1.4042	1.3987	1.3926	1.3859	1.379	1.3722	1.3656	1.3593
P-Residential	1.3532	1.3471	1.3408	1.334	1.3265	1.3179	1.3079	1.2964
P-Residential	1.2831	1.2681	1.2516	1.234	1.2158	1.1979	1.1812	1.1666
P-Residential	1.1547	1.146	1.1404	1.1378	1.1374	1.1387	1.1408	1.1433
P-Residential	1.1459	1.1483	1.1509	1.1537	1.1571	1.1611	1.1657	1.1708
P-Residential	1.1763	1.1819	1.1875	1.1931	1.1989	1.2047	1.2108	1.2171
P-Residential	1.2235	1.2298	1.2359	1.2414	1.2464	1.2508	1.2548	1.2585
P-Residential	1.2622	1.266	1.2702	1.2748	1.2796	1.2848	1.2901	1.2953
P-Residential	1.3002	1.3045	1.308	1.3104	1.3118	1.3121	1.3116	1.3107
P-Residential	1.3099	1.3096	1.3101	1.3115	1.3134	1.3153	1.3165	1.3163
P-Residential	1.3145	1.3112	1.3069	1.3026	1.2995	1.2986	1.3005	1.3053
P-Residential	1.3124	1.3206	1.3286	1.3351	1.3392	1.3402	1.3385	1.3342
P-Residential	1.3281	1.3206	1.3117	1.3012	1.2884	1.2727	1.2538	1.2317
P-Residential	1.2074	1.1819	1.1572	1.1346	1.1156	1.1003	1.0886	1.0792
P-Residential	1.0705	1.0608	1.0486	1.033	1.0141	0.9923	0.9687	0.9446
P-Residential	0.921	0.8988	0.878	0.8586	0.8401	0.8218	0.8033	0.7842
P-Residential	0.7644	0.7441	0.7233	0.7023	0.6813	0.6602	0.6391	0.6178
P-Residential	0.5963	0.5746	0.5527	0.5309	0.5092	0.4879	0.4671	0.4469
P-Residential	0.4273	0.4086	0.3905	0.3733	0.3568	0.3412	0.3263	0.3123
P-Residential	0.299	0.2863	0.2742	0.2627	0.2517	0.2411	0.2309	0.2212
P-Residential	0.2118	0.203	0.1948	0.1874	0.1808	0.1751	0.1704	0.1664
P-Residential	0.163	0.1597	0.1562	0.1523	0.1478	0.1429	0.138	0.1334
P-Residential	0.1298	0.1275	0.1268	0.1275	0.1293	0.1317	0.1343	0.1366
P-Residential	0.1388	0.141	0.1437	0.1477	0.1534	0.1614	0.1719	0.1851
P-Residential	0.2014	0.2213	0.2458	0.276	0.3136	0.3598	0.4155	0.4806
P-Residential	0.5538	0.6329	0.7147	0.7956	0.8721	0.9419	1.0036	1.0571
P-Residential	1.1039	1.1461	1.1859	1.2254	1.2656	1.3065	1.3473	1.3862
P-Residential	1.4212	1.4507	1.4737	1.4898	1.4996	1.5043	1.5053	1.5043
P-Residential	1.5022	1.5001	1.4984	1.497	1.4961	1.4954	1.4949	1.4945
P-Residential	1.4943	1.4943	1.4943	1.4942	1.4939	1.4933	1.4922	1.4909
P-Residential	1.4895	1.4883	1.4876	1.4875	1.4881	1.489	1.49	1.4907
P-Residential	1.4908	1.49	1.4882	1.4856	1.4825	1.479	1.4755	1.4721
P-Residential	1.4689	1.466	1.4633	1.4609	1.4586	1.4564	1.4543	1.4522
P-Residential	1.45	1.4475	1.4447	1.4414	1.4379	1.4341	1.4306	1.4274
P-Residential	1.4248	1.4231	1.4219	1.4212	1.4206	1.4195	1.4178	1.4153
P-Residential	1.412	1.4083	1.4046	1.4013	1.3988	1.397	1.3957	1.3945
P-Residential	1.3927	1.3897	1.3849	1.3783	1.3699	1.3602	1.3498	1.3396
P-Residential	1.33	1.3215	1.314	1.3072	1.3005	1.2929	1.2838	1.2725
P-Residential	1.2588	1.2428	1.225	1.2062	1.1876	1.1702	1.1547	1.142
P-Residential	1.1323	1.1255	1.1213	1.1192	1.1185	1.1187	1.1193	1.1201
P-Residential	1.1211	1.1221	1.1235	1.1252	1.1276	1.1305	1.1341	1.1383
P-Residential	1.143	1.148	1.1535	1.1591	1.165	1.1708	1.1766	1.1821
P-Residential	1.1873	1.192	1.1962	1.2001	1.2036	1.2071	1.2106	1.2143
P-Residential	1.2184	1.223	1.2281	1.2337	1.2399	1.2465	1.2536	1.2608
P-Residential	1.2679	1.2745	1.2802	1.2848	1.2878	1.2895	1.2899	1.2898
P-Residential	1.2896	1.2901	1.2917	1.2944	1.2981	1.3022	1.3057	1.308
P-Residential	1.3085	1.3072	1.3044	1.3012	1.2985	1.2976	1.2992	1.3035
P-Residential	1.3102	1.3183	1.3266	1.3336	1.3385	1.3404	1.3394	1.3357
P-Residential	1.3297	1.3218	1.3122	1.3006	1.2866	1.2698	1.2497	1.2267
P-Residential	1.2016	1.1756	1.1504	1.1277	1.1085	1.0935	1.0821	1.0733
P-Residential	1.0655	1.0569	1.0462	1.0325	1.0159	0.9968	0.9764	0.9557
P-Residential	0.9356	0.9165	0.8983	0.8804	0.8621	0.8427	0.8221	0.8002
P-Residential	0.7777	0.755	0.7329	0.7118	0.6917	0.6724	0.6532	0.6335
P-Residential	0.6129	0.5912	0.5685	0.5453	0.5222	0.4998	0.4785	0.4584
P-Residential	0.4395	0.4213	0.4036	0.3862	0.3691	0.3525	0.3365	0.3217
P-Residential	0.308	0.2957	0.2844	0.2739	0.2637	0.2536	0.2433	0.2331
P-Residential	0.2232	0.214	0.2059	0.1991	0.1937	0.1894	0.1858	0.1824
P-Residential	0.1786	0.1741	0.1687	0.1624	0.1555	0.1486	0.1421	0.1366
P-Residential	0.1324	0.1295	0.1281	0.1277	0.1283	0.1294	0.1308	0.1327
P-Residential	0.135	0.1382	0.1429	0.1493	0.1581	0.1693	0.1831	0.1995
P-Residential	0.2186	0.2406	0.2661	0.296	0.3315	0.3741	0.4248	0.4841
P-Residential	0.5516	0.6261	0.7049	0.7851	0.8632	0.936	1.0014	1.0581
P-Residential	1.1065	1.148	1.1848	1.2191	1.253	1.2875	1.3225	1.3572
P-Residential	1.3897	1.4181	1.441	1.4574	1.4674	1.4721	1.4731	1.4724
P-Residential	1.4717	1.4723	1.4747	1.4788	1.4839	1.4892	1.494	1.4978
P-Residential	1.5004	1.502	1.5032	1.5042	1.5055	1.507	1.5086	1.5099
P-Residential	1.5107	1.5106	1.5095	1.5076	1.5051	1.5025	1.4998	1.4974
P-Residential	1.4953	1.4935	1.4916	1.4897	1.4875	1.4851	1.4826	1.4801
P-Residential	1.4776	1.4753	1.4731	1.4711	1.469	1.4667	1.4642	1.4614
P-Residential	1.4583	1.455	1.4516	1.4481	1.4447	1.4411	1.4375	1.4337
P-Residential	1.4299	1.4261	1.4224	1.4189	1.4159	1.4134	1.4115	1.41
P-Residential	1.4086	1.4073	1.4055	1.4031	1.3999	1.3958	1.3907	1.3848
P-Residential	1.3782	1.371	1.3635	1.3557	1.3477	1.3397	1.3318	1.324
P-Residential	1.3167	1.3097	1.3032	1.297	1.2909	1.2844	1.2771	1.2686
P-Residential	1.2586	1.2468	1.2336	1.2194	1.2051	1.1915	1.1795	1.1698
P-Residential	1.1627	1.1583	1.1563	1.156	1.1568	1.158	1.1592	1.1602
P-Residential	1.161	1.162	1.1635	1.1658	1.169	1.1733	1.1783	1.1838
P-Residential	1.1895	1.1951	1.2004	1.2054	1.2102	1.2148	1.2194	1.2241
P-Residential	1.2288	1.2336	1.2383	1.243	1.2474	1.2518	1.2559	1.2598
P-Residential	1.2636	1.2671	1.2705	1.2737	1.2768	1.2799	1.2831	1.2864
P-Residential	1.2899	1.2934	1.2968	1.2997	1.3019	1.3034	1.3041	1.3044
P-Residential	1.3045	1.305	1.306	1.3078	1.3101	1.3125	1.3143	1.3149
P-Residential	1.314	1.3113	1.3072	1.3024	1.2977	1.2941	1.2919	1.2915
P-Residential	1.2925	1.2942	1.2956	1.2959	1.2943	1.2905	1.2846	1.2768
P-Residential	1.2675	1.2569	1.2452	1.2319	1.2168	1.1993	1.1794	1.1573
P-Residential	1.1339	1.1102	1.0876	1.0674	1.0504	1.0368	1.0261	1.0171
P-Residential	1.0086	0.9991	0.9877	0.9739	0.9578	0.9403	0.9222	0.9044
P-Residential	0.8878	0.8725	0.8583	0.8446	0.831	0.8166	0.8013	0.785
P-Residential	0.7682	0.7512	0.7345	0.7184	0.7029	0.6877	0.6724	0.6564
P-Residential	0.6394	0.6212	0.6021	0.5824	0.5627	0.5435	0.5252	0.5079
P-Residential	0.4916	0.476	0.4606	0.4452	0.4296	0.4139	0.3982	0.3829
P-Residential	0.3682	0.3545	0.3417	0.3299	0.3188	0.3082	0.2978	0.2875
P-Residential	0.2772	0.2673	0.258	0.2495	0.2421	0.236	0.2309	0.2267
P-Residential	0.2229	0.219	0.2146	0.2095	0.2036	0.1972	0.1906	0.1844
P-Residential	0.1792	0.1753	0.173	0.1723	0.1728	0.1741	0.1758	0.1774
P-Residential	0.1786	0.1794	0.18	0.1808	0.1823	0.185	0.1893	0.1955
P-Residential	0.2037	0.2138	0.2258	0.2395	0.2549	0.2721	0.2913	0.3125
P-Residential	0.336	0.3615	0.389	0.418	0.448	0.4786	0.5093	0.5399
P-Residential	0.5703	0.6008	0.6315	0.6629	0.6952	0.7284	0.7624	0.7969
P-Residential	0.8311	0.8646	0.8968	0.9273	0.9558	0.9824	1.0075	1.0313
P-Residential	1.0543	1.0768	1.099	1.1209	1.1424	1.1633	1.1831	1.2017
P-Residential	1.2188	1.2343	1.2483	1.2608	1.2721	1.2823	1.2915	1.3
P-Residential	1.3077	1.3145	1.3206	1.3256	1.3298	1.3331	1.3356	1.3375
P-Residential	1.339	1.3402	1.3414	1.3427	1.344	1.3452	1.3463	1.3471
P-Residential	1.3474	1.3472	1.3464	1.345	1.343	1.3406	1.3379	1.3349
P-Residential	1.3319	1.3289	1.326	1.3233	1.3208	1.3184	1.3162	1.3141
P-Residential	1.312	1.3099	1.3077	1.3055	1.3032	1.3009	1.2987	1.2967
P-Residential	1.2949	1.2932	1.2917	1.2903	1.289	1.2877	1.2863	1.2849
P-Residential	1.2836	1.2825	1.2815	1.2809	1.2806	1.2806	1.281	1.2815
P-Residential	1.2822	1.2829	1.2837	1.2846	1.2855	1.2864	1.2873	1.2882
P-Residential	1.2888	1.2891	1.2891	1.2887	1.288	1.287	1.2858	1.2847
P-Residential	1.2836	1.2826	1.2817	1.2808	1.2797	1.2786	1.2774	1.2762
P-Residential	1.2751	1.2744	1.2741	1.2742	1.2747	1.2754	1.276	1.2764
P-Residential	1.2764	1.2759	1.2752	1.2743	1.2734	1.2729	1.2729	1.2734
P-Residential	1.2743	1.2753	1.2762	1.2769	1.2771	1.2769	1.2763	1.2757
P-Residential	1.2752	1.2751	1.2754	1.2762	1.2773	1.2786	1.2797	1.2804
P-Residential	1.2806	1.2803	1.2794	1.2781	1.2766	1.275	1.2734	1.2718
P-Residential	1.2703	1.2686	1.2667	1.2643	1.2614	1.2579	1.2536	1.2488
P-Residential	1.2434	1.2378	1.232	1.2263	1.2208	1.2156	1.2106	1.2055
P-Residential	1.2002	1.1945	1.1881	1.1809	1.1729	1.1642	1.155	1.1455
P-Residential	1.1357	1.1258	1.1156	1.1049	1.0934	1.081	1.0674	1.0528
P-Residential	1.0374	1.0216	1.0058	0.9905	0.9759	0.9622	0.9494	0.9372
P-Residential	0.9253	0.9133	0.9011	0.8884	0.8754	0.8623	0.8493	0.8367
P-Residential	0.8247	0.8134	0.8027	0.7924	0.7822	0.7719	0.7612	0.7499
P-Residential	0.738	0.7254	0.7122	0.6985	0.6843	0.6698	0.655	0.64
P-Residential	0.6251	0.6102	0.5955	0.5811	0.5671	0.5533	0.5397	0.5262
P-Residential	0.5128	0.4993	0.4859	0.4724	0.4592	0.4461	0.4335	0.4212
P-Residential	0.4093	0.3976	0.3861	0.3747	0.3632	0.3517	0.3402	0.3289
P-Residential	0.3179	0.3074	0.2973	0.2879	0.2789	0.2703	0.2619	0.2538
P-Residential	0.2459	0.2383	0.2309	0.224	0.2176	0.2117	0.2063	0.2013
P-Residential	0.1968	0.1926	0.1889	0.186	0.1839	0.1829	0.1832	0.1848
P-Residential	0.1875	0.1911	0.1952	0.1993	0.2032	0.2068	0.2101	0.2135
P-Residential	0.2174	0.2225	0.2292	0.2378	0.2483	0.2608	0.275	0.2904
P-Residential	0.3068	0.324	0.3419	0.3604	0.3797	0.3997	0.4203	0.4414
P-Residential	0.4627	0.4839	0.5048	0.5252	0.5454	0.5657	0.5865	0.6082
P-Residential	0.6312	0.6555	0.6809	0.7071	0.7333	0.7589	0.7835	0.8066
P-Residential	0.8282	0.8483	0.8674	0.8855	0.9031	0.92	0.9363	0.9517
P-Residential	0.9661	0.9793	0.9913	1.0022	1.0123	1.0218	1.0312	1.0406
P-Residential	1.0502	1.0601	1.0702	1.0805	1.0911	1.1019	1.1132	1.1248
P-Residential	1.1368	1.1491	1.1613	1.1733	1.1848	1.1954	1.2051	1.2138
P-Residential	1.2219	1.2294	1.2365	1.2434	1.25	1.2561	1.2616	1.266
P-Residential	1.2694	1.2715	1.2727	1.273	1.2727	1.2723	1.2718	1.2713
P-Residential	1.2708	1.2702	1.2692	1.2677	1.2658	1.2636	1.2611	1.2584
P-Residential	1.2557	1.253	1.2501	1.2469	1.2432	1.2389	1.2341	1.2288
P-Residential	1.2232	1.2176	1.2122	1.2072	1.2025	1.198	1.1937	1.1894
P-Residential	1.185	1.1805	1.1759	1.1716	1.1676	1.1641	1.1611	1.1585
P-Residential	1.1562	1.1538	1.1513	1.1484	1.1451	1.1414	1.1374	1.1334
P-Residential	1.1294	1.1256	1.122	1.1188	1.1157	1.1129	1.1104	1.1083
P-Residential	1.1065	1.1052	1.1045	1.1045	1.1049	1.1059	1.1072	1.1088
P-Residential	1.1104	1.112	1.1135	1.115	1.1165	1.1182	1.12	1.122
P-Residential	1.1243	1.1268	1.1295	1.1322	1.135	1.1378	1.1407	1.1436
P-Residential	1.1467	1.1499	1.1535	1.1573	1.1612	1.1653	1.1692	1.1728
P-Residential	1.1761	1.1788	1.181	1.1829	1.1845	1.1859	1.1875	1.1891
P-Residential	1.1908	1.1924	1.1938	1.1947	1.195	1.1946	1.1936	1.1922
P-Residential	1.1907	1.1895	1.1888	1.189	1.1901	1.1922	1.195	1.1983
P-Residential	1.2015	1.2044	1.2066	1.2077	1.2076	1.2062	1.2034	1.1995
P-Residential	1.1945	1.1885	1.1816	1.1738	1.1649	1.1548	1.1435	1.1307
P-Residential	1.1164	1.1007	1.0839	1.0662	1.048	1.0298	1.0118	0.9943
P-Residential	0.9774	0.9611	0.9451	0.9293	0.9136	0.8979	0.8821	0.8664
P-Residential	0.8509	0.8357	0.8209	0.8064	0.7922	0.7781	0.764	0.7497
P-Residential	0.7349	0.7194	0.7032	0.6861	0.6681	0.6492	0.6294	0.6089
P-Residential	0.5881	0.5672	0.5467	0.5268	0.5079	0.4901	0.4733	0.4573
P-Residential	0.4417	0.4264	0.4109	0.3953	0.3795	0.3638	0.3483	0.3335
P-Residential	0.3195	0.3065	0.2946	0.2836	0.2736	0.2643	0.2556	0.2475
P-Residential	0.2399	0.2327	0.2257	0.219	0.2123	0.2056	0.199	0.1925
P-Residential	0.1863	0.1806	0.1756	0.1712	0.1674	0.164	0.1608	0.1576
P-Residential	0.1543	0.1512	0.1486	0.147	0.1467	0.148	0.1508	0.1548
P-Residential	0.1594	0.1641	0.1687	0.1733	0.179	0.1869	0.1991	0.2175
P-Residential	0.2435	0.2782	0.3217	0.373	0.4305	0.492	0.5549	0.6171
P-Residential	0.6769	0.7331	0.7852	0.8331	0.8774	0.9185	0.9572	0.9941
P-Residential	1.03	1.0654	1.1009	1.1368	1.1734	1.2103	1.2468	1.282
P-Residential	1.3145	1.3431	1.3666	1.3845	1.3968	1.4045	1.4086	1.4107
P-Residential	1.4123	1.4145	1.4179	1.4226	1.4281	1.4338	1.4387	1.4425
P-Residential	1.4448	1.4458	1.4457	1.4451	1.4443	1.4437	1.4432	1.4428
P-Residential	1.4422	1.4411	1.4396	1.4375	1.4352	1.4327	1.4303	1.428
P-Residential	1.4258	1.4236	1.4213	1.4188	1.4161	1.4133	1.4106	1.4084
P-Residential	1.4067	1.4056	1.4053	1.4054	1.4058	1.4061	1.406	1.4054
P-Residential	1.4042	1.4024	1.4001	1.3974	1.3944	1.3912	1.3878	1.3842
P-Residential	1.3805	1.3768	1.3733	1.37	1.3671	1.3648	1.3631	1.362
P-Residential	1.3611	1.3602	1.3589	1.3567	1.353	1.3475	1.3401	1.3308
P-Residential	1.3198	1.3079	1.2957	1.284	1.2738	1.2655	1.2593	1.2551
P-Residential	1.2523	1.2501	1.2475	1.2435	1.2373	1.2285	1.217	1.2033
P-Residential	1.1878	1.1715	1.1551	1.1393	1.1248	1.1118	1.1008	1.0916
P-Residential	1.0844	1.079	1.0754	1.0732	1.0722	1.0723	1.073	1.0741
P-Residential	1.0754	1.0768	1.0783	1.08	1.0821	1.0848	1.0882	1.0923
P-Residential	1.0971	1.1025	1.1082	1.1142	1.1202	1.1261	1.132	1.1378
P-Residential	1.1435	1.1492	1.1548	1.1604	1.1658	1.1712	1.1765	1.1817
P-Residential	1.187	1.1925	1.1981	1.2042	1.2106	1.2174	1.2244	1.2316
P-Residential	1.2387	1.2453	1.2512	1.256	1.2598	1.2624	1.2641	1.2653
P-Residential	1.2666	1.2684	1.2709	1.2743	1.2783	1.2825	1.2862	1.2888
P-Residential	1.2901	1.29	1.2891	1.2881	1.288	1.2897	1.2938	1.3004
P-Residential	1.3089	1.3186	1.3281	1.3364	1.3426	1.3462	1.3471	1.3455
P-Residential	1.3417	1.3359	1.3279	1.3173	1.3038	1.2868	1.2664	1.243
P-Residential	1.2177	1.192	1.1675	1.1459	1.1279	1.1136	1.1022	1.0924
P-Residential	1.0824	1.0707	1.0561	1.0383	1.0178	0.9957	0.9731	0.9514
P-Residential	0.9312	0.9126	0.8952	0.8781	0.8604	0.8412	0.8201	0.7972
;DEMAND:
P-Commercial	0.9174	0.9053	0.8929	0.8802	0.8673	0.8541	0.8406	0.8269
P-Commercial	0.8128	0.7988	0.7848	0.7714	0.7585	0.7465	0.7351	0.7242
P-Commercial	0.7136	0.7029	0.6919	0.6807	0.6693	0.658	0.6473	0.6374
P-Commercial	0.6287	0.6211	0.6146	0.6088	0.6034	0.598	0.5923	0.5862
P-Commercial	0.5797	0.573	0.5663	0.56	0.5543	0.5492	0.5449	0.5411
P-Commercial	0.5378	0.5348	0.532	0.5294	0.5268	0.5244	0.5222	0.5203
P-Commercial	0.5186	0.5172	0.5158	0.5146	0.5133	0.5121	0.511	0.5103
P-Commercial	0.5101	0.5106	0.512	0.5144	0.5176	0.5216	0.526	0.5306
P-Commercial	0.5351	0.5392	0.5431	0.5467	0.5505	0.5548	0.5601	0.5668
P-Commercial	0.5752	0.5854	0.5974	0.6111	0.626	0.642	0.6585	0.6756
P-Commercial	0.693	0.7107	0.7289	0.7478	0.7672	0.7874	0.8081	0.8291
P-Commercial	0.8502	0.8709	0.8909	0.9101	0.9282	0.9452	0.9613	0.9766
P-Commercial	0.9914	1.0059	1.0202	1.0345	1.0488	1.0627	1.0762	1.089
P-Commercial	1.1008	1.1114	1.1208	1.1288	1.1357	1.1416	1.1468	1.1515
P-Commercial	1.156	1.1602	1.1642	1.168	1.1715	1.1747	1.1775	1.18
P-Commercial	1.1824	1.1848	1.1874	1.1904	1.1937	1.1974	1.2012	1.205
P-Commercial	1.2086	1.2117	1.2143	1.2164	1.2181	1.2195	1.2208	1.2221
P-Commercial	1.2236	1.2251	1.2267	1.2282	1.2294	1.2303	1.2307	1.2306
P-Commercial	1.23	1.2288	1.2272	1.2252	1.2231	1.2208	1.2187	1.2168
P-Commercial	1.2153	1.2142	1.2136	1.2133	1.2131	1.2129	1.2124	1.2114
P-Commercial	1.2097	1.2076	1.205	1.2022	1.1995	1.1972	1.1955	1.1946
P-Commercial	1.1945	1.195	1.1961	1.1974	1.1988	1.2001	1.2011	1.2018
P-Commercial	1.2022	1.2021	1.2016	1.2008	1.1994	1.1975	1.1951	1.1921
P-Commercial	1.1884	1.1843	1.1797	1.175	1.1702	1.1656	1.1615	1.1581
P-Commercial	1.1553	1.1533	1.1519	1.151	1.1502	1.1495	1.1487	1.1475
P-Commercial	1.1462	1.1448	1.1434	1.1422	1.1413	1.1408	1.1406	1.1405
P-Commercial	1.1404	1.1401	1.1396	1.1387	1.1376	1.1364	1.1353	1.1345
P-Commercial	1.134	1.1337	1.1336	1.1334	1.1329	1.132	1.1306	1.1287
P-Commercial	1.1265	1.1242	1.122	1.12	1.1183	1.117	1.116	1.1153
P-Commercial	1.1147	1.1142	1.1137	1.1131	1.1123	1.1112	1.1098	1.108
P-Commercial	1.1057	1.1031	1.1004	1.0977	1.0954	1.0938	1.0929	1.0928
P-Commercial	1.0933	1.0942	1.0952	1.0958	1.0958	1.0949	1.0931	1.0906
P-Commercial	1.0875	1.084	1.0802	1.0762	1.0721	1.0678	1.0632	1.0585
P-Commercial	1.0537	1.0491	1.0449	1.0415	1.0389	1.0374	1.0368	1.0368
P-Commercial	1.0371	1.0373	1.0372	1.0364	1.0348	1.0324	1.0292	1.0253
P-Commercial	1.0208	1.0156	1.0098	1.0033	0.9961	0.9881	0.9796	0.9705
P-Commercial	0.9609	0.951	0.9406	0.9298	0.9183	0.906	0.8929	0.879
P-Commercial	0.8644	0.8495	0.8345	0.8199	0.8059	0.7927	0.7802	0.7683
P-Commercial	0.7566	0.7449	0.733	0.7208	0.7085	0.6964	0.6848	0.6742
P-Commercial	0.6648	0.6567	0.6498	0.6439	0.6384	0.6331	0.6275	0.6215
P-Commercial	0.6151	0.6085	0.6019	0.5955	0.5897	0.5845	0.5798	0.5756
P-Commercial	0.5715	0.5674	0.5632	0.5588	0.5545	0.5503	0.5467	0.5438
P-Commercial	0.5417	0.5405	0.54	0.5401	0.5405	0.5409	0.5413	0.5414
P-Commercial	0.5415	0.5414	0.5415	0.5417	0.5423	0.5433	0.5447	0.5465
P-Commercial	0.5489	0.5519	0.5554	0.5597	0.5646	0.5704	0.5769	0.5841
P-Commercial	0.5923	0.6013	0.6113	0.6226	0.6352	0.6493	0.6649	0.682
P-Commercial	0.7005	0.72	0.7401	0.7606	0.781	0.8012	0.8211	0.8408
P-Commercial	0.8601	0.8792	0.898	0.9165	0.9344	0.9516	0.9678	0.9831
P-Commercial	0.9974	1.0108	1.0237	1.0362	1.0486	1.0608	1.0729	1.0846
P-Commercial	1.0957	1.1058	1.1147	1.1223	1.1287	1.1341	1.1387	1.1429
P-Commercial	1.1469	1.1511	1.1554	1.1599	1.1646	1.1693	1.174	1.1786
P-Commercial	1.1832	1.1876	1.1919	1.1961	1.2002	1.2041	1.2079	1.2114
P-Commercial	1.2148	1.2181	1.2211	1.2239	1.2264	1.2284	1.2299	1.2308
P-Commercial	1.231	1.2308	1.2301	1.2293	1.2286	1.2282	1.2282	1.2284
P-Commercial	1.2288	1.2291	1.229	1.2285	1.2273	1.2257	1.2238	1.2219
P-Commercial	1.2201	1.2185	1.2173	1.2163	1.2152	1.214	1.2123	1.2102
P-Commercial	1.2078	1.2051	1.2025	1.2002	1.1985	1.1974	1.197	1.1973
P-Commercial	1.198	1.1988	1.1998	1.2005	1.201	1.2011	1.2008	1.2
P-Commercial	1.1988	1.1971	1.1951	1.1926	1.1897	1.1866	1.1832	1.1795
P-Commercial	1.1757	1.1718	1.1678	1.1639	1.1601	1.1566	1.1535	1.1511
P-Commercial	1.1492	1.148	1.1474	1.1471	1.1469	1.1467	1.1465	1.1461
P-Commercial	1.1456	1.1452	1.145	1.1451	1.1455	1.146	1.1463	1.1462
P-Commercial	1.1456	1.1442	1.1423	1.1399	1.1376	1.1358	1.1346	1.1345
P-Commercial	1.1352	1.1366	1.1384	1.1401	1.1412	1.1416	1.1411	1.1398
P-Commercial	1.1379	1.1358	1.1336	1.1315	1.1297	1.1281	1.1267	1.1252
P-Commercial	1.1238	1.1222	1.1205	1.1189	1.1173	1.1157	1.1143	1.113
P-Commercial	1.1117	1.1106	1.1095	1.1086	1.1079	1.1075	1.1075	1.1077
P-Commercial	1.1081	1.1085	1.1088	1.1087	1.1081	1.107	1.1055	1.1035
P-Commercial	1.1011	1.0984	1.0955	1.0923	1.0888	1.085	1.0809	1.0768
P-Commercial	1.0726	1.0688	1.0654	1.0627	1.0607	1.0596	1.0592	1.0593
P-Commercial	1.0597	1.0601	1.0603	1.0602	1.0596	1.0584	1.0566	1.0542
P-Commercial	1.0512	1.0474	1.043	1.0378	1.0318	1.0252	1.0178	1.0097
P-Commercial	1.001	0.9915	0.9811	0.9699	0.9577	0.9446	0.9307	0.916
P-Commercial	0.901	0.8859	0.8709	0.8563	0.8423	0.8287	0.8155	0.8025
P-Commercial	0.7894	0.776	0.7622	0.748	0.7335	0.719	0.7049	0.6915
P-Commercial	0.6791	0.6677	0.6575	0.6482	0.6398	0.632	0.6244	0.617
P-Commercial	0.6096	0.6023	0.5952	0.5883	0.5819	0.576	0.5707	0.5659
P-Commercial	0.5616	0.5576	0.5539	0.5503	0.5469	0.5438	0.5409	0.5384
P-Commercial	0.5361	0.5342	0.5324	0.5306	0.5288	0.5269	0.525	0.5232
P-Commercial	0.5218	0.5211	0.5212	0.5223	0.5245	0.5274	0.531	0.5349
P-Commercial	0.5388	0.5424	0.5459	0.5492	0.5527	0.5568	0.5619	0.5685
P-Commercial	0.5767	0.5868	0.5987	0.6122	0.6269	0.6426	0.659	0.6759
P-Commercial	0.6933	0.711	0.7293	0.7482	0.7679	0.7882	0.8092	0.8305
P-Commercial	0.852	0.8732	0.8937	0.9133	0.9318	0.9491	0.9653	0.9806
P-Commercial	0.9952	1.0094	1.0233	1.037	1.0503	1.0631	1.0751	1.086
P-Commercial	1.0955	1.1036	1.1104	1.116	1.1209	1.1253	1.1296	1.1339
P-Commercial	1.1384	1.143	1.1476	1.1519	1.1559	1.1596	1.1629	1.1662
P-Commercial	1.1695	1.1731	1.1771	1.1815	1.1862	1.1909	1.1955	1.1996
P-Commercial	1.2033	1.2065	1.2092	1.2116	1.2139	1.2161	1.2184	1.2206
P-Commercial	1.2226	1.2244	1.2258	1.2268	1.2274	1.2275	1.2275	1.2272
P-Commercial	1.2269	1.2265	1.226	1.2254	1.2246	1.2237	1.2227	1.2216
P-Commercial	1.2206	1.2197	1.2191	1.2186	1.2183	1.2178	1.2171	1.2159
P-Commercial	1.2141	1.2118	1.209	1.206	1.2031	1.2005	1.1986	1.1975
P-Commercial	1.1972	1.1978	1.1992	1.201	1.2032	1.2054	1.2075	1.2092
P-Commercial	1.2105	1.2111	1.211	1.2102	1.2087	1.2064	1.2034	1.1998
P-Commercial	1.1957	1.1914	1.1869	1.1825	1.1783	1.1745	1.1711	1.1682
P-Commercial	1.1657	1.1636	1.1617	1.1601	1.1585	1.1569	1.1554	1.1539
P-Commercial	1.1526	1.1513	1.1502	1.1493	1.1486	1.148	1.1476	1.1471
P-Commercial	1.1468	1.1464	1.1461	1.1459	1.1458	1.1458	1.146	1.1463
P-Commercial	1.1466	1.147	1.1472	1.1472	1.1469	1.1464	1.1455	1.1444
P-Commercial	1.1429	1.1413	1.1395	1.1377	1.136	1.1344	1.1332	1.1323
P-Commercial	1.1316	1.1312	1.1308	1.1303	1.1296	1.1284	1.1268	1.1246
P-Commercial	1.1221	1.1195	1.1169	1.1146	1.1128	1.1117	1.111	1.1109
P-Commercial	1.111	1.1111	1.111	1.1105	1.1095	1.108	1.1059	1.1034
P-Commercial	1.1004	1.0969	1.0931	1.0889	1.0843	1.0796	1.0749	1.0704
P-Commercial	1.0664	1.0631	1.0606	1.0592	1.0587	1.059	1.0598	1.061
P-Commercial	1.0622	1.0632	1.0639	1.0641	1.0638	1.0631	1.0618	1.0598
P-Commercial	1.0571	1.0536	1.0491	1.0435	1.0368	1.029	1.0203	1.0108
P-Commercial	1.0007	0.99	0.979	0.9676	0.9558	0.9436	0.9311	0.9181
P-Commercial	0.9049	0.8915	0.8782	0.865	0.8521	0.8394	0.8268	0.8141
P-Commercial	0.8012	0.7879	0.7741	0.7599	0.7454	0.7312	0.7175	0.7048
P-Commercial	0.6933	0.6831	0.6743	0.6666	0.6596	0.6529	0.6462	0.6392
P-Commercial	0.6318	0.6242	0.6164	0.6089	0.6018	0.5953	0.5896	0.5845
P-Commercial	0.5799	0.5755	0.5713	0.567	0.5626	0.5582	0.554	0.5503
P-Commercial	0.5472	0.5449	0.5435	0.543	0.5431	0.5438	0.5447	0.5457
P-Commercial	0.5465	0.5472	0.5477	0.5481	0.5486	0.5492	0.55	0.5511
P-Commercial	0.5526	0.5545	0.5568	0.5597	0.5631	0.5672	0.5722	0.5783
P-Commercial	0.5856	0.5943	0.6045	0.6162	0.6294	0.6439	0.6597	0.6766
P-Commercial	0.6943	0.7129	0.7322	0.752	0.7722	0.7928	0.8135	0.8342
P-Commercial	0.8546	0.8746	0.894	0.9126	0.9306	0.9478	0.9643	0.9802
P-Commercial	0.9956	1.0106	1.025	1.0389	1.0522	1.0648	1.0765	1.0873
P-Commercial	1.0971	1.106	1.114	1.1212	1.1278	1.1338	1.1394	1.1447
P-Commercial	1.1498	1.1547	1.1595	1.1642	1.1689	1.1735	1.1782	1.1828
P-Commercial	1.1874	1.1919	1.1962	1.2005	1.2045	1.2084	1.212	1.2155
P-Commercial	1.2187	1.2218	1.2246	1.2273	1.2297	1.2319	1.2339	1.2357
P-Commercial	1.2372	1.2384	1.2393	1.24	1.2403	1.2404	1.2403	1.2399
P-Commercial	1.2394	1.2388	1.2381	1.2374	1.2368	1.2362	1.2357	1.2354
P-Commercial	1.2351	1.235	1.2351	1.2353	1.2355	1.2357	1.2358	1.2358
P-Commercial	1.2354	1.2347	1.2335	1.2318	1.2298	1.2275	1.2252	1.2229
P-Commercial	1.2209	1.2193	1.2182	1.2174	1.217	1.2168	1.2167	1.2164
P-Commercial	1.2158	1.2149	1.2136	1.2121	1.2103	1.2083	1.2061	1.2038
P-Commercial	1.2014	1.1988	1.1962	1.1935	1.1908	1.1882	1.1858	1.1838
P-Commercial	1.1821	1.1807	1.1797	1.1788	1.1779	1.1769	1.1758	1.1744
P-Commercial	1.173	1.1716	1.1705	1.1697	1.1695	1.1697	1.1702	1.1709
P-Commercial	1.1715	1.1717	1.1716	1.171	1.1701	1.169	1.1681	1.1676
P-Commercial	1.1677	1.1684	1.1695	1.171	1.1724	1.1735	1.1739	1.1737
P-Commercial	1.1727	1.1713	1.1695	1.1677	1.1661	1.1649	1.1642	1.1638
P-Commercial	1.1636	1.1635	1.1632	1.1626	1.1616	1.1602	1.1586	1.1569
P-Commercial	1.1553	1.1538	1.1526	1.1516	1.1508	1.1501	1.1494	1.1486
P-Commercial	1.1477	1.1465	1.1451	1.1434	1.1416	1.1395	1.1374	1.1351
P-Commercial	1.1328	1.1305	1.1281	1.1258	1.1236	1.1217	1.12	1.1187
P-Commercial	1.1179	1.1177	1.1181	1.1192	1.1208	1.123	1.1257	1.1288
P-Commercial	1.1323	1.136	1.1399	1.1439	1.1479	1.1519	1.1556	1.1592
P-Commercial	1.1624	1.1652	1.1676	1.1695	1.1709	1.1718	1.172	1.1715
P-Commercial	1.1702	1.168	1.1646	1.16	1.1542	1.1472	1.1391	1.1301
P-Commercial	1.1205	1.1106	1.1005	1.0904	1.0803	1.0702	1.0599	1.0493
P-Commercial	1.0383	1.0268	1.0149	1.0028	0.9908	0.9792	0.9682	0.9579
P-Commercial	0.9483	0.9393	0.9305	0.9214	0.9116	0.9007	0.8886	0.8751
P-Commercial	0.8606	0.8453	0.8297	0.8144	0.7998	0.7863	0.7739	0.7627
P-Commercial	0.7525	0.7432	0.7346	0.7264	0.7186	0.7113	0.7044	0.698
P-Commercial	0.6922	0.6868	0.6818	0.6771	0.6726	0.6682	0.6638	0.6596
P-Commercial	0.6557	0.6522	0.6493	0.647	0.6453	0.644	0.643	0.6421
P-Commercial	0.6411	0.64	0.6389	0.6377	0.6368	0.6362	0.6362	0.6368
P-Commercial	0.6382	0.6403	0.6431	0.6468	0.6513	0.6566	0.6628	0.6698
P-Commercial	0.6776	0.6861	0.6952	0.7048	0.7149	0.7254	0.7366	0.7486
P-Commercial	0.7615	0.7755	0.7905	0.8062	0.8225	0.8388	0.8546	0.8696
P-Commercial	0.8835	0.8963	0.9081	0.9192	0.93	0.9406	0.9513	0.962
P-Commercial	0.9728	0.9835	0.9938	1.0036	1.0128	1.0216	1.03	1.0381
P-Commercial	1.0461	1.054	1.0617	1.0692	1.0762	1.0825	1.0882	1.0933
P-Commercial	1.0978	1.1018	1.1056	1.1092	1.1128	1.1163	1.1198	1.1231
P-Commercial	1.1261	1.1288	1.1313	1.1334	1.1354	1.1372	1.139	1.1407
P-Commercial	1.1425	1.1442	1.1459	1.1475	1.1489	1.1503	1.1514	1.1524
P-Commercial	1.1531	1.1536	1.1539	1.1539	1.1537	1.1533	1.1528	1.1521
P-Commercial	1.1512	1.1502	1.1491	1.1478	1.1464	1.145	1.1435	1.1422
P-Commercial	1.141	1.14	1.1393	1.1387	1.1383	1.138	1.1377	1.1373
P-Commercial	1.1369	1.1364	1.1359	1.1353	1.1349	1.1344	1.134	1.1335
P-Commercial	1.133	1.1324	1.1317	1.131	1.1304	1.1299	1.1296	1.1294
P-Commercial	1.1292	1.1291	1.1289	1.1286	1.1281	1.1276	1.1272	1.127
P-Commercial	1.1271	1.1275	1.1283	1.1293	1.1303	1.1313	1.1321	1.1326
P-Commercial	1.133	1.1332	1.1335	1.1339	1.1345	1.1353	1.1362	1.137
P-Commercial	1.1378	1.1383	1.1388	1.1393	1.1399	1.1409	1.1424	1.1446
P-Commercial	1.1474	1.1507	1.1542	1.1578	1.161	1.1637	1.1657	1.167
P-Commercial	1.1676	1.1678	1.1678	1.1678	1.1681	1.1688	1.1699	1.1714
P-Commercial	1.1729	1.1742	1.175	1.1752	1.1746	1.1733	1.1715	1.1694
P-Commercial	1.1674	1.1658	1.1646	1.1639	1.1636	1.1634	1.1631	1.1624
P-Commercial	1.1612	1.1594	1.1572	1.1548	1.1524	1.1502	1.1484	1.147
P-Commercial	1.1458	1.1449	1.144	1.1432	1.1425	1.142	1.1418	1.1421
P-Commercial	1.143	1.1443	1.1461	1.1482	1.1504	1.1527	1.1551	1.1577
P-Commercial	1.1606	1.1641	1.1682	1.1729	1.1782	1.1838	1.1895	1.1948
P-Commercial	1.1997	1.2039	1.2073	1.2101	1.2123	1.2139	1.215	1.2154
P-Commercial	1.2151	1.2139	1.2118	1.2087	1.2047	1.1997	1.194	1.1876
P-Commercial	1.1808	1.1735	1.166	1.1582	1.1502	1.142	1.1335	1.1248
P-Commercial	1.1158	1.1065	1.0968	1.0868	1.0766	1.0662	1.0559	1.0457
P-Commercial	1.0359	1.0264	1.0174	1.0084	0.9994	0.9897	0.9792	0.9676
P-Commercial	0.9547	0.9408	0.9262	0.9112	0.8963	0.8819	0.8684	0.8557
P-Commercial	0.8439	0.8329	0.8224	0.8125	0.8031	0.7942	0.786	0.7786
P-Commercial	0.772	0.7663	0.7611	0.7565	0.7521	0.7478	0.7434	0.7391
P-Commercial	0.7349	0.7309	0.7271	0.7235	0.7202	0.7169	0.7136	0.7101
P-Commercial	0.7064	0.7026	0.6988	0.6951	0.6918	0.689	0.6868	0.6852
P-Commercial	0.6841	0.6836	0.6836	0.6841	0.6853	0.6872	0.69	0.6936
P-Commercial	0.698	0.7031	0.7088	0.7148	0.721	0.7275	0.7342	0.7412
P-Commercial	0.7486	0.7564	0.7648	0.7736	0.7828	0.7922	0.8016	0.8109
P-Commercial	0.82	0.8289	0.8377	0.8463	0.8547	0.863	0.8711	0.8788
P-Commercial	0.8863	0.8934	0.9003	0.9069	0.9135	0.92	0.9267	0.9335
P-Commercial	0.9405	0.9476	0.9547	0.9619	0.9691	0.9763	0.9836	0.9909
P-Commercial	0.9982	1.0055	1.0128	1.0198	1.0266	1.033	1.0388	1.0443
P-Commercial	1.0492	1.0538	1.058	1.0619	1.0655	1.0689	1.0721	1.0751
P-Commercial	1.0778	1.0804	1.0828	1.0848	1.0866	1.0879	1.0886	1.0888
P-Commercial	1.0884	1.0874	1.0861	1.0844	1.0828	1.0812	1.0799	1.0788
P-Commercial	1.078	1.0773	1.0766	1.0757	1.0747	1.0733	1.0719	1.0703
P-Commercial	1.0687	1.0673	1.0662	1.0652	1.0646	1.0642	1.064	1.0641
P-Commercial	1.0643	1.0647	1.0653	1.066	1.0669	1.0678	1.0687	1.0696
P-Commercial	1.0703	1.0709	1.0714	1.0719	1.0724	1.073	1.0738	1.0747
P-Commercial	1.0758	1.0769	1.0779	1.0789	1.0799	1.0807	1.0816	1.0825
P-Commercial	1.0836	1.0847	1.0861	1.0876	1.0892	1.0907	1.0922	1.0936
P-Commercial	1.0948	1.0958	1.0967	1.0976	1.0985	1.0994	1.1005	1.1017
P-Commercial	1.103	1.1044	1.1058	1.1073	1.1087	1.1102	1.1117	1.1133
P-Commercial	1.1151	1.1172	1.1194	1.1217	1.1239	1.1261	1.1279	1.1293
P-Commercial	1.1304	1.1312	1.1317	1.1323	1.1329	1.1338	1.135	1.1364
P-Commercial	1.1379	1.1394	1.1407	1.1416	1.1422	1.1423	1.1421	1.1418
P-Commercial	1.1414	1.1411	1.141	1.141	1.1412	1.1413	1.1414	1.1413
P-Commercial	1.141	1.1403	1.1393	1.138	1.1364	1.1345	1.1325	1.1303
P-Commercial	1.128	1.1255	1.1229	1.1202	1.1173	1.1144	1.1113	1.1081
P-Commercial	1.1048	1.1016	1.0985	1.0956	1.0929	1.0906	1.0886	1.0868
P-Commercial	1.0852	1.0836	1.082	1.0801	1.078	1.0756	1.0728	1.0696
P-Commercial	1.0661	1.0621	1.0578	1.053	1.0476	1.0417	1.035	1.0276
P-Commercial	1.0193	1.0101	0.9999	0.9886	0.9764	0.9631	0.9491	0.9344
P-Commercial	0.9196	0.9049	0.8907	0.8772	0.8645	0.8526	0.8411	0.8299
P-Commercial	0.8185	0.8065	0.7939	0.7806	0.7668	0.753	0.7396	0.727
P-Commercial	0.7155	0.7053	0.6963	0.6882	0.6807	0.6735	0.6662	0.6587
P-Commercial	0.651	0.6433	0.6357	0.6286	0.6221	0.6163	0.6111	0.6065
P-Commercial	0.6021	0.5979	0.5937	0.5895	0.5853	0.5811	0.5773	0.574
P-Commercial	0.5712	0.569	0.5675	0.5664	0.5657	0.5652	0.5648	0.5645
P-Commercial	0.5642	0.564	0.564	0.5643	0.5649	0.566	0.5674	0.5691
P-Commercial	0.5711	0.5732	0.5755	0.578	0.5809	0.5845	0.589	0.5948
P-Commercial	0.6019	0.6106	0.6209	0.6328	0.6459	0.6603	0.6756	0.6917
P-Commercial	0.7086	0.7261	0.7443	0.7631	0.7826	0.8027	0.8232	0.8439
P-Commercial	0.8647	0.8854	0.9056	0.9254	0.9444	0.9627	0.9802	0.9969
P-Commercial	1.0128	1.0278	1.042	1.0555	1.0681	1.08	1.0912	1.1018
P-Commercial	1.1118	1.1214	1.1305	1.1392	1.1476	1.1556	1.1633	1.1705
P-Commercial	1.1774	1.1838	1.1897	1.1951	1.1998	1.2041	1.2078	1.2111
P-Commercial	1.214	1.2167	1.2191	1.2215	1.2238	1.226	1.2281	1.23
P-Commercial	1.2317	1.2333	1.2346	1.2359	1.2369	1.2378	1.2385	1.2388
P-Commercial	1.2388	1.2383	1.2373	1.2359	1.2342	1.2324	1.2305	1.2289
P-Commercial	1.2274	1.2261	1.2249	1.2237	1.2223	1.2206	1.2188	1.2168
P-Commercial	1.2149	1.2132	1.2118	1.2109	1.2103	1.2099	1.2095	1.2087
P-Commercial	1.2074	1.2055	1.2032	1.2005	1.1978	1.1953	1.1933	1.1919
P-Commercial	1.1909	1.1904	1.1902	1.1901	1.19	1.1897	1.1894	1.1889
P-Commercial	1.1885	1.1881	1.1877	1.1871	1.1861	1.1847	1.1826	1.1797
P-Commercial	1.1761	1.1718	1.1671	1.1621	1.1572	1.1525	1.1484	1.1448
P-Commercial	1.142	1.1399	1.1384	1.1374	1.1367	1.1363	1.1358	1.1353
P-Commercial	1.1346	1.1337	1.1326	1.1314	1.1302	1.1288	1.1275	1.1261
P-Commercial	1.1247	1.1231	1.1214	1.1196	1.1178	1.116	1.1144	1.1131
P-Commercial	1.1121	1.1114	1.1109	1.1105	1.1099	1.109	1.1078	1.1062
P-Commercial	1.1044	1.1024	1.1005	1.0988	1.0974	1.0963	1.0955	1.0949
P-Commercial	1.0943	1.0936	1.0927	1.0915	1.09	1.0883	1.0863	1.0841
P-Commercial	1.0818	1.0796	1.0776	1.0758	1.0745	1.0737	1.0734	1.0734
P-Commercial	1.0737	1.0739	1.0739	1.0734	1.0724	1.0708	1.0687	1.0662
P-Commercial	1.0635	1.0606	1.0575	1.0541	1.0503	1.0458	1.0407	1.0351
P-Commercial	1.0292	1.0233	1.0178	1.0132	1.0095	1.007	1.0052	1.004
P-Commercial	1.0029	1.0014	0.9994	0.9967	0.9933	0.9895	0.9854	0.9813
P-Commercial	0.9772	0.9729	0.9681	0.9626	0.956	0.9482	0.939	0.9287

[TIMES]
Duration	168
Hydraulic Timestep	0:05
Report Timestep	0:05
Pattern Timestep	0:05
Quality Timestep	0:05

[REPORT]
Status	FULL
Summary	No
Page	0

[OPTIONS]
Quality	NONE
Unbalanced	CONTINUE 10
Accuracy	0.01
Units	CMH
Headloss	H-W
Demand Multiplier	1
Demand Model	DDA
Emitter Exponent	0.5
Trials	50
Pattern	constant

[BACKDROP]
Units	NONE

[COORDINATES]
;Node	X-coord	Y-coord
n1	138.22000000000003	1549.64
n2	274.23	1504.56
n3	271.2800000000001	1480.96
n4	186.6199999999999	1326.65
n5	158.93000000000006	1233.34
n6	261.3299999999999	1361.98
n7	369.97	1543.26
n8	162.6500000000001	1181.32
n9	256.53999999999985	1318.85
n10	361.45000000000005	1475.42
n11	167.13999999999987	1118.61
n12	271.0899999999999	1281.28
n13	170.68000000000006	1059.78
n14	302.24	1279.26
n15	344.8399999999999	1347.41
n16	336.3700000000001	1277.06
n17	177.1199999999999	987.98
n18	331.15999999999997	1227.21
n19	439.9100000000001	1391.07
n20	325.7800000000001	1173.23
n21	181.22000000000003	914.67
n22	525.83	1490.19
n23	314.6600000000001	1113.15
n24	393.29999999999995	1207.5
n25	195.95000000000005	860.16
n26	309.6600000000001	1037.48
n27	378.8399999999999	1136.18
n28	305.94000000000017	1008.07
n29	482.97	1314.28
n30	575.55	1471.84
n31	361.51	1100.77
n32	478.0899999999999	1296.3
n33	300.28999999999996	964.57
n34	423.9100000000001	1120.35
n35	292.39999999999986	892.5
n36	525.89	1281.28
n37	405.03	1063.3
n38	288.81999999999994	853.94
n39	389.45000000000005	1016.1
n40	370.28999999999996	938.65
n41	566.53	1268.51
n42	403.76	973.45
n43	432.65	1003.48
n44	526.16	1162.06
n45	460.3399999999999	1032.96
n343	548.48	1153.26
n344	353.1400000000001	1409.75
n345	424.85	1329.87
n346	447.73	1192.11
n347	135.01999999999998	1617.6599999999999
n348	179.23000000000002	1607.01
n349	227.11	1590.82
n350	275.12	1576.83
n351	318.71000000000004	1563.11
n352	317.8399999999999	1489.99
n353	263.41999999999996	1433.65
n354	308	1421.64
n355	217.78999999999996	1235.65
n356	265.51	1239.01
n357	305.2400000000001	1353.42
n358	421.93000000000006	1525.57
n359	473.87	1507.88
n360	217.0300000000001	1178.62
n361	271.4	1175.93
n362	413.65	1457.94
n363	452.68000000000006	1442.27
n364	216.31999999999982	1116.79
n365	265.49	1114.97
n366	217.01	1052.35
n367	263.33000000000004	1044.91
n368	384.8399999999999	1338.64
n369	218.17999999999995	980.17
n370	259.23	972.37
n371	396.53	1400.41
n372	377.55999999999995	1167.44
n373	236.80999999999995	903.59
n374	515.11	1446.21
n375	504.4	1402.24
n376	493.68000000000006	1358.26
n377	312.1700000000001	1075.32
n378	403.80999999999995	1248.29
n379	414.3399999999999	1289.08
n380	354.8600000000001	990.76
n381	563.14	1424.2
n382	550.73	1376.56
n383	538.31	1328.92
n384	462.9200000000001	1244.21
n385	435.8299999999999	1156.23
n386	329.55999999999995	896.3
n387	504.22	1119.03
n388	482.27	1075.99
n389	486.95000000000005	1177.09
1	600.8759006795522	1135.2043290558515

[VERTICES]
;link	X-coord	Y-coord

[END]